coords = array2d(1..60, 1..2, [741, 937, 515, 952, 289, 537, 760, 982, 955,
    928, 939, 344, 663, 754, 840, 835, 691, 881, 224, 541, 235, 463,
    966, 862, 935, 895, 423, 345, 210, 443, 700, 214, 275, 122, 5,
    882, 114, 254, 454, 989, 474, 728, 536, 604, 466, 564, 114, 500,
    106, 149, 942, 336, 112, 161, 539, 391, 333, 496, 458, 54, 912,
    365, 808, 506, 232, 763, 186, 39, 408, 151, 962, 281, 51, 375,
    908, 973, 178, 145, 182, 583, 351, 84, 507, 806, 63, 946, 109,
    510, 779, 683, 768, 110, 973, 971, 567, 683, 832, 65, 82, 778,
    735, 260, 823, 76, 627, 766, 645, 880, 593, 960, 979, 359, 655,
    678, 192, 460, 981, 81, 424, 983]);

n = 60;

